NAME : POMORSKIE-n10
COMMENT : Auto generated by mgrVRP
TYPE : CVRP
DIMENSION : 10
EDGE_WEIGHT_TYPE : EUC_2D
CAPACITY : 200.0
NODE_COORD_SECTION
1 54.186943833381285 17.212834009420888
2 54.0245959279333 18.170100487427874
3 53.98494370478481 18.738027014742453
4 54.35791664318397 18.310669613075525
5 54.56822443429723 17.89863366601743
6 53.70930159055491 16.991265952262626
7 54.29942372301504 18.694101541054202
8 53.57499410592872 19.089667109766882
9 53.588250897919494 17.15489041623105
10 54.26629330784278 17.58679047747094
11 53.87071922305293 18.678083232543813
DEMAND_SECTION
1 0
2 58.0
3 36.0
4 41.0
5 36.0
6 45.0
7 40.0
8 50.0
9 37.0
10 43.0
11 41.0
DEPOT_SECTION
1
-1
EOF
